789.61
0 50 10 91 67 52 41 95 88 59 6 73 66 23 36 22 49 28 1 72 51 92 12 20 89 86 4 78 19 11 14 55 61 99 70 80 40 68 56 54 57 63 90 60 43 18 69 37 42 65 45 32 85 21 47 87 39 71 9 76 35 30 31 13 77 84 27 53 81 5 97 8 93 96 16 48 46 17 15 62 79 33 82 58 75 64 25 2 38 3 44 24 98 7 83 26 34 74 94 29
